
  25    0


   0  13 2 3 4 6 7 8 9 10 11 21 22 23 24 
   7   6 20 17 16 15 12 5 
   8   4 19 18 15 12 
   2   3 17 14 13 
   5   2 14 13 
   3   2 16 12 
   9   2 14 12 
   3   1 15 
   8   1 13 
  10   1 12 
  10   1 12 
  10   1 25
  10   1 25
   1   1 25
   7   1 25
   6   1 25
   6   1 25
  10   1 25
   5   1 25
   4   1 25
   6   1 25
   3   1 25
   7   1 25
   7   1 25
   0   0 
